p tw 65 72
1 2
2 13
3 4
4 5
5 6
6 7
7 8
8 9
9 10
10 11
11 12
12 14
13 24
14 15
15 16
16 17
17 18
18 19
19 20
19 22
20 21
21 22
22 23
23 25
24 35
25 26
25 33
26 27
26 29
27 28
28 33
29 30
30 31
31 32
32 33
33 34
34 36
35 46
36 37
36 48
37 38
38 39
39 40
40 41
41 42
42 43
42 15
43 44
44 45
45 47
46 57
46 64
47 15
48 49
49 50
50 51
51 52
52 53
53 54
53 58
54 55
55 56
56 61
57 63
58 59
59 60
60 61
61 62
63 64
63 6
64 65
65 3
